db/data/185052832029974439140867982311728367.z3.out
sat
-------------------
1356.874866731
